5 5
2 47 1 90 3 40 4 42 0 51
3 35 2 41 1 85 0 57 4 38
0 72 3 96 4 8 2 74 1 63
0 87 4 4 3 48 1 52 2 38
2 94 4 87 1 5 0 85 3 70
-1
0 1 2 5
0 1 2 3 5
0 3 5
0 1 2 3 5
0 1 2 4 5
-2
66 189 412
39 100 203 315
209 425
89 145 200 241
132 252 369 425

426 6
15 10 23 8 4
1 18 22 7 14
0 20 6 19 13
5 17 2 11 24
16 21 3 12 9
